n_res = 5;
rcap = [14, 16, 15, 91, 72];
rtype = [1, 1, 1, 2, 2];
n_tasks = 16;
modes = [ {1, 2, 3}, {4, 5, 6}, {7, 8, 9}, {10, 11, 12}, {13, 14, 15}, {16, 17, 18}, {19, 20, 21}, {22, 23, 24}, {25, 26, 27}, {28, 29, 30}, {31, 32, 33}, {34, 35, 36}, {37, 38, 39}, {40, 41, 42}, {43, 44, 45}, {46, 47, 48} ];
succ = [ {5, 6, 14}, {4, 9, 14}, {10, 12, 13}, {6, 10, 16}, {8, 11, 16}, {7}, {8, 11, 12}, {13}, {10, 11, 12}, {15}, {13}, {15}, {15}, {}, {}, {} ];
n_opt = 48;
dur = [3, 6, 8, 3, 5, 6, 4, 5, 10, 4, 7, 7, 4, 8, 9, 3, 4, 7, 3, 3, 8, 1, 2, 4, 9, 10, 10, 2, 9, 10, 4, 4, 9, 3, 7, 10, 6, 7, 10, 1, 2, 10, 3, 3, 9, 6, 7, 9];
rreq = [|  3,  3,  3,  8,  7,  7,  4,  3,  3,  4,  3,  3,  3,  3,  2,  8,  7,  6,  9,  8,  6,  7,  6,  4,  8,  8,  8,  7,  5,  3,  7,  9,  5,  6,  4,  3,  3,  3,  3,  2,  2,  1,  7,  8,  5, 10,  9,  9
        |  8,  7,  4, 10, 10, 10,  4,  4,  4, 10, 10, 10,  5,  4,  4,  8,  8,  5,  8,  7,  5,  3,  3,  3,  7,  3,  2, 10, 10, 10, 10, 10,  7,  4,  2,  2,  5,  4,  2,  6,  4,  2,  9,  7,  6,  7,  6,  4
        |  4,  4,  3,  4,  4,  3,  8,  6,  5,  5,  3,  1,  6,  6,  3, 10, 10,  9,  7,  7,  4,  6,  5,  4,  5,  3,  1,  5,  5,  4,  8,  7,  6,  9,  9,  8,  8,  8,  8,  9,  9,  8,  8,  8,  7,  7,  6,  5
        | 10,  9,  9,  9,  6,  5, 10,  9,  8,  7,  5,  7,  6,  6,  6,  5,  5,  5,  5,  6,  3,  9,  7,  7,  8,  1,  4,  9,  7,  5, 10,  8,  3, 10,  7,  5,  4,  3,  3,  5,  5,  4,  5,  5,  5,  8,  7,  7
        |  6,  6,  4,  6,  5,  5,  9,  8,  8,  3,  3,  3,  7,  7,  7,  4,  2,  1,  4,  5,  3,  9,  9,  6,  5,  4,  5,  7,  6,  5,  9,  8,  5,  4,  3,  3,  7,  5,  2,  5,  4,  1,  7,  8,  4,  4,  2,  2 |];
